decision_x1=[0,2];
decision_x2=[0,2];
decision_x3=[0,2];
decision_x4=[0,2];
decision_x5=[0,2];
decision_x6=[0,2];
decision_x7=[0,2];
decision_x8=[0,2];
decision_x9=[0,2];
decision_x10=[0,2];
random_y1=[0,2];
random_y2=[0,2];
random_y3=[0,2];
random_y4=[0,2];
constraint_x2_x1=[
0,0,5.6|
0,1,1.5|
0,2,5|
1,0,9.6|
1,1,9.6|
1,2,0.13|
2,0,1.3|
2,1,3.3|
2,2,3.9|
];
constraint_x4_x3=[
0,0,5|
0,1,7.2|
0,2,4.5|
1,0,4.9|
1,1,2.2|
1,2,5.7|
2,0,1.8|
2,1,2.7|
2,2,1.2|
];
constraint_x5_x1=[
0,0,0.78|
0,1,2.6|
0,2,3.2|
1,0,5.3|
1,1,1.8|
1,2,2.6|
2,0,0.99|
2,1,5.5|
2,2,3.5|
];
constraint_x5_x4=[
0,0,2.5|
0,1,3.3|
0,2,8.6|
1,0,2.7|
1,1,4.6|
1,2,1.1|
2,0,9.5|
2,1,1.2|
2,2,3.1|
];
constraint_x6_x1=[
0,0,4.4|
0,1,1.8|
0,2,1.7|
1,0,8.9|
1,1,5.5|
1,2,0.22|
2,0,9.8|
2,1,0.97|
2,2,7.8|
];
constraint_x6_x3=[
0,0,9|
0,1,4.4|
0,2,6.1|
1,0,7.4|
1,1,6.4|
1,2,4.7|
2,0,8.2|
2,1,6.8|
2,2,6.9|
];
constraint_x6_x4=[
0,0,8.6|
0,1,8.9|
0,2,6.7|
1,0,8.9|
1,1,9|
1,2,9.2|
2,0,6.9|
2,1,8.2|
2,2,5.9|
];
constraint_x6_x5=[
0,0,4.2|
0,1,7.8|
0,2,6.9|
1,0,5.6|
1,1,2.3|
1,2,5.2|
2,0,9.5|
2,1,2.6|
2,2,0.5|
];
constraint_x7_x1=[
0,0,4.9|
0,1,8.3|
0,2,5.1|
1,0,4.8|
1,1,8.6|
1,2,5.1|
2,0,3.3|
2,1,3.1|
2,2,3.2|
];
constraint_x7_x4=[
0,0,0.72|
0,1,0.18|
0,2,2.1|
1,0,0.029|
1,1,2.8|
1,2,9.9|
2,0,8.2|
2,1,3.1|
2,2,0.89|
];
constraint_x8_x1=[
0,0,2.1|
0,1,4.3|
0,2,4.7|
1,0,0.79|
1,1,4.5|
1,2,9.9|
2,0,1.5|
2,1,7.8|
2,2,5.4|
];
constraint_x8_x2=[
0,0,6.3|
0,1,2.1|
0,2,8.3|
1,0,2|
1,1,5.6|
1,2,8.1|
2,0,8|
2,1,5|
2,2,6|
];
constraint_x8_x6=[
0,0,1.5|
0,1,7.8|
0,2,7.1|
1,0,9.7|
1,1,3.3|
1,2,3.8|
2,0,4.1|
2,1,8.3|
2,2,7.8|
];
constraint_x8_x7=[
0,0,8.9|
0,1,7.7|
0,2,7.7|
1,0,2.5|
1,1,10|
1,2,9|
2,0,0.48|
2,1,6|
2,2,8|
];
constraint_x9_x1=[
0,0,6.4|
0,1,3.4|
0,2,9.1|
1,0,9.3|
1,1,1.2|
1,2,9.4|
2,0,5.5|
2,1,9.7|
2,2,4.1|
];
constraint_x9_x4=[
0,0,8.7|
0,1,7|
0,2,1.2|
1,0,7.5|
1,1,1.1|
1,2,9.8|
2,0,7.1|
2,1,3.8|
2,2,3.7|
];
constraint_x9_x5=[
0,0,8.1|
0,1,9.6|
0,2,6.1|
1,0,7.9|
1,1,8.8|
1,2,7.3|
2,0,9.9|
2,1,7.4|
2,2,8.9|
];
constraint_x9_x6=[
0,0,4.1|
0,1,4.2|
0,2,9.8|
1,0,5.9|
1,1,0.86|
1,2,5|
2,0,2.9|
2,1,5.9|
2,2,8.3|
];
constraint_x10_x1=[
0,0,5.4|
0,1,6.2|
0,2,2.1|
1,0,2.7|
1,1,7.8|
1,2,4.8|
2,0,5.8|
2,1,8.4|
2,2,2.4|
];
constraint_x10_x2=[
0,0,2.4|
0,1,6|
0,2,1.4|
1,0,2.9|
1,1,8.2|
1,2,1.8|
2,0,2.7|
2,1,1.2|
2,2,6.5|
];
constraint_x10_x4=[
0,0,0.72|
0,1,0.39|
0,2,0.084|
1,0,1.2|
1,1,8.5|
1,2,3.3|
2,0,8.7|
2,1,3.7|
2,2,1.9|
];
constraint_x10_x7=[
0,0,0.82|
0,1,6.6|
0,2,8.1|
1,0,5.9|
1,1,3.9|
1,2,8.3|
2,0,5.1|
2,1,2.6|
2,2,5.3|
];
constraint_x10_x8=[
0,0,2.7|
0,1,0.79|
0,2,2.7|
1,0,6.4|
1,1,9|
1,2,9.1|
2,0,9.9|
2,1,0.31|
2,2,0.69|
];
constraint_x1_y1=[
0,0,2.6|
0,1,5.9|
0,2,0.25|
1,0,8.1|
1,1,2.1|
1,2,4.2|
2,0,8.2|
2,1,7.1|
2,2,9.2|
];
constraint_x2_y2=[
0,0,6.5|
0,1,1.5|
0,2,1.5|
1,0,8.5|
1,1,6.7|
1,2,7.5|
2,0,7.4|
2,1,5.2|
2,2,2.1|
];
constraint_x3_y3=[
0,0,8.9|
0,1,6.1|
0,2,0.28|
1,0,1.6|
1,1,3.1|
1,2,6.7|
2,0,7.7|
2,1,4.1|
2,2,4.2|
];
constraint_x4_y4=[
0,0,2.2|
0,1,6.5|
0,2,0.87|
1,0,5.5|
1,1,5|
1,2,4.8|
2,0,7.7|
2,1,5.5|
2,2,2.7|
];
initial_distribution_y1=[0.21,0.31,0.48];
initial_distribution_y2=[0.46,0.13,0.42];
initial_distribution_y3=[0.58,0.29,0.13];
initial_distribution_y4=[0.7,0.27,0.026];
transition_y1=[
0.23,0.56,0.21|
0.37,0.48,0.15|
0.73,0.23,0.042|
];
transition_y2=[
0.38,0.22,0.4|
0.2,0.34,0.46|
0.37,0.6,0.038|
];
transition_y3=[
0.39,0.16,0.45|
0.63,0.12,0.25|
0.4,0.11,0.49|
];
transition_y4=[
0.33,0.3,0.36|
0.14,0.79,0.07|
0.37,0.21,0.43|
];
